c FILE: yuzGCPrnd127.9.col
c
c SOURCE: Yu.Zorin (yzorin@gmail.com)
c
c DESCRIPTION: Random graph 
c              generated for Artificial Intelligence lectures course
c
p edge 127 2768
e 1 4
e 1 6
e 1 7
e 1 9
e 1 13
e 1 14
e 1 15
e 1 16
e 1 17
e 1 23
e 1 24
e 1 26
e 1 29
e 1 36
e 1 38
e 1 39
e 1 41
e 1 42
e 1 45
e 1 46
e 1 48
e 1 54
e 1 61
e 1 66
e 1 67
e 1 69
e 1 72
e 1 73
e 1 80
e 1 81
e 1 82
e 1 83
e 1 90
e 1 92
e 1 93
e 1 95
e 1 96
e 1 106
e 1 112
e 1 114
e 1 120
e 1 121
e 1 123
e 1 125
e 2 3
e 2 4
e 2 7
e 2 8
e 2 10
e 2 12
e 2 14
e 2 15
e 2 16
e 2 21
e 2 22
e 2 23
e 2 25
e 2 27
e 2 28
e 2 33
e 2 34
e 2 39
e 2 44
e 2 48
e 2 51
e 2 55
e 2 57
e 2 59
e 2 63
e 2 65
e 2 68
e 2 70
e 2 74
e 2 75
e 2 82
e 2 85
e 2 89
e 2 107
e 2 108
e 2 110
e 2 111
e 2 112
e 2 113
e 2 120
e 2 121
e 2 123
e 2 124
e 2 126
e 3 5
e 3 8
e 3 10
e 3 14
e 3 17
e 3 20
e 3 21
e 3 26
e 3 29
e 3 31
e 3 34
e 3 40
e 3 43
e 3 46
e 3 48
e 3 49
e 3 53
e 3 57
e 3 59
e 3 61
e 3 64
e 3 65
e 3 67
e 3 71
e 3 81
e 3 82
e 3 83
e 3 86
e 3 87
e 3 89
e 3 92
e 3 93
e 3 96
e 3 99
e 3 100
e 3 103
e 3 104
e 3 106
e 3 108
e 3 110
e 3 111
e 3 121
e 3 126
e 4 8
e 4 9
e 4 12
e 4 13
e 4 14
e 4 15
e 4 17
e 4 20
e 4 21
e 4 23
e 4 26
e 4 27
e 4 30
e 4 35
e 4 40
e 4 41
e 4 43
e 4 46
e 4 47
e 4 50
e 4 56
e 4 60
e 4 69
e 4 73
e 4 75
e 4 77
e 4 78
e 4 79
e 4 81
e 4 82
e 4 84
e 4 85
e 4 89
e 4 90
e 4 91
e 4 96
e 4 99
e 4 101
e 4 105
e 4 112
e 4 117
e 4 120
e 4 121
e 4 123
e 4 124
e 4 125
e 4 126
e 5 8
e 5 17
e 5 21
e 5 25
e 5 26
e 5 27
e 5 35
e 5 40
e 5 41
e 5 44
e 5 48
e 5 50
e 5 52
e 5 53
e 5 56
e 5 57
e 5 58
e 5 60
e 5 63
e 5 64
e 5 67
e 5 69
e 5 70
e 5 72
e 5 75
e 5 76
e 5 80
e 5 83
e 5 91
e 5 92
e 5 98
e 5 99
e 5 100
e 5 104
e 5 112
e 5 113
e 5 117
e 5 120
e 5 122
e 5 124
e 6 7
e 6 8
e 6 10
e 6 11
e 6 12
e 6 13
e 6 14
e 6 16
e 6 17
e 6 20
e 6 21
e 6 22
e 6 26
e 6 27
e 6 30
e 6 31
e 6 32
e 6 34
e 6 37
e 6 39
e 6 40
e 6 41
e 6 43
e 6 47
e 6 50
e 6 55
e 6 56
e 6 57
e 6 58
e 6 62
e 6 65
e 6 69
e 6 74
e 6 77
e 6 80
e 6 82
e 6 89
e 6 90
e 6 97
e 6 100
e 6 102
e 6 103
e 6 104
e 6 106
e 6 108
e 6 109
e 6 112
e 6 113
e 6 114
e 6 117
e 6 121
e 6 123
e 6 126
e 7 8
e 7 13
e 7 15
e 7 16
e 7 18
e 7 19
e 7 21
e 7 22
e 7 25
e 7 28
e 7 34
e 7 37
e 7 38
e 7 43
e 7 45
e 7 48
e 7 56
e 7 61
e 7 62
e 7 63
e 7 67
e 7 70
e 7 72
e 7 75
e 7 79
e 7 82
e 7 83
e 7 84
e 7 85
e 7 91
e 7 94
e 7 95
e 7 98
e 7 104
e 7 107
e 7 110
e 7 113
e 7 114
e 7 116
e 7 122
e 7 125
e 8 11
e 8 13
e 8 14
e 8 17
e 8 18
e 8 19
e 8 22
e 8 28
e 8 32
e 8 33
e 8 35
e 8 36
e 8 40
e 8 41
e 8 42
e 8 47
e 8 48
e 8 49
e 8 50
e 8 55
e 8 58
e 8 62
e 8 65
e 8 66
e 8 67
e 8 73
e 8 74
e 8 76
e 8 78
e 8 83
e 8 89
e 8 90
e 8 92
e 8 103
e 8 104
e 8 106
e 8 107
e 8 110
e 8 113
e 8 120
e 8 121
e 8 123
e 8 124
e 8 125
e 8 127
e 9 10
e 9 13
e 9 14
e 9 15
e 9 20
e 9 26
e 9 28
e 9 29
e 9 33
e 9 36
e 9 38
e 9 39
e 9 45
e 9 47
e 9 50
e 9 59
e 9 62
e 9 65
e 9 66
e 9 68
e 9 69
e 9 74
e 9 75
e 9 84
e 9 85
e 9 88
e 9 96
e 9 97
e 9 99
e 9 100
e 9 105
e 9 108
e 9 110
e 9 114
e 9 115
e 9 116
e 9 117
e 9 121
e 10 11
e 10 12
e 10 17
e 10 20
e 10 21
e 10 24
e 10 27
e 10 29
e 10 31
e 10 38
e 10 40
e 10 41
e 10 42
e 10 44
e 10 46
e 10 48
e 10 52
e 10 54
e 10 55
e 10 59
e 10 60
e 10 62
e 10 65
e 10 66
e 10 70
e 10 72
e 10 73
e 10 78
e 10 83
e 10 84
e 10 85
e 10 86
e 10 87
e 10 92
e 10 94
e 10 96
e 10 97
e 10 104
e 10 106
e 10 107
e 10 109
e 10 111
e 10 115
e 10 117
e 10 119
e 10 121
e 10 122
e 11 13
e 11 19
e 11 20
e 11 31
e 11 33
e 11 34
e 11 35
e 11 43
e 11 46
e 11 50
e 11 51
e 11 60
e 11 62
e 11 63
e 11 65
e 11 68
e 11 69
e 11 70
e 11 74
e 11 77
e 11 79
e 11 80
e 11 81
e 11 84
e 11 85
e 11 86
e 11 87
e 11 89
e 11 94
e 11 95
e 11 97
e 11 98
e 11 103
e 11 104
e 11 105
e 11 109
e 11 110
e 11 118
e 11 120
e 11 123
e 11 124
e 11 125
e 11 126
e 12 16
e 12 18
e 12 26
e 12 31
e 12 36
e 12 38
e 12 41
e 12 42
e 12 43
e 12 46
e 12 48
e 12 52
e 12 53
e 12 55
e 12 59
e 12 60
e 12 65
e 12 70
e 12 71
e 12 72
e 12 74
e 12 78
e 12 80
e 12 83
e 12 86
e 12 90
e 12 91
e 12 95
e 12 99
e 12 101
e 12 103
e 12 105
e 12 111
e 12 113
e 12 114
e 12 116
e 12 118
e 12 120
e 12 123
e 12 124
e 13 15
e 13 16
e 13 24
e 13 28
e 13 31
e 13 32
e 13 40
e 13 41
e 13 45
e 13 46
e 13 48
e 13 50
e 13 55
e 13 56
e 13 57
e 13 67
e 13 68
e 13 71
e 13 72
e 13 73
e 13 74
e 13 78
e 13 85
e 13 87
e 13 89
e 13 94
e 13 95
e 13 97
e 13 98
e 13 99
e 13 102
e 13 105
e 13 106
e 13 107
e 13 108
e 13 118
e 13 121
e 13 126
e 14 15
e 14 22
e 14 25
e 14 26
e 14 27
e 14 30
e 14 35
e 14 36
e 14 37
e 14 40
e 14 43
e 14 44
e 14 49
e 14 51
e 14 53
e 14 54
e 14 61
e 14 62
e 14 67
e 14 68
e 14 70
e 14 71
e 14 75
e 14 76
e 14 80
e 14 81
e 14 82
e 14 84
e 14 86
e 14 88
e 14 95
e 14 97
e 14 99
e 14 105
e 14 106
e 14 107
e 14 108
e 14 109
e 14 110
e 14 118
e 14 119
e 14 123
e 15 19
e 15 24
e 15 25
e 15 28
e 15 30
e 15 33
e 15 36
e 15 37
e 15 43
e 15 49
e 15 50
e 15 52
e 15 54
e 15 55
e 15 65
e 15 70
e 15 71
e 15 76
e 15 77
e 15 78
e 15 79
e 15 81
e 15 83
e 15 84
e 15 87
e 15 89
e 15 92
e 15 98
e 15 99
e 15 100
e 15 102
e 15 104
e 15 105
e 15 107
e 15 117
e 15 118
e 15 121
e 15 126
e 15 127
e 16 17
e 16 19
e 16 25
e 16 26
e 16 27
e 16 33
e 16 34
e 16 35
e 16 36
e 16 39
e 16 40
e 16 42
e 16 43
e 16 45
e 16 50
e 16 51
e 16 53
e 16 59
e 16 64
e 16 65
e 16 68
e 16 69
e 16 85
e 16 86
e 16 89
e 16 90
e 16 93
e 16 94
e 16 97
e 16 98
e 16 101
e 16 103
e 16 108
e 16 113
e 16 127
e 17 19
e 17 22
e 17 24
e 17 34
e 17 38
e 17 41
e 17 42
e 17 43
e 17 44
e 17 45
e 17 47
e 17 48
e 17 53
e 17 57
e 17 61
e 17 64
e 17 66
e 17 67
e 17 75
e 17 76
e 17 81
e 17 82
e 17 84
e 17 86
e 17 87
e 17 89
e 17 92
e 17 94
e 17 96
e 17 97
e 17 101
e 17 102
e 17 105
e 17 108
e 17 109
e 17 115
e 17 119
e 17 122
e 17 123
e 17 124
e 17 125
e 18 20
e 18 21
e 18 22
e 18 24
e 18 27
e 18 31
e 18 32
e 18 39
e 18 40
e 18 45
e 18 46
e 18 48
e 18 49
e 18 57
e 18 60
e 18 62
e 18 67
e 18 70
e 18 71
e 18 76
e 18 80
e 18 85
e 18 86
e 18 87
e 18 88
e 18 89
e 18 93
e 18 101
e 18 103
e 18 107
e 18 108
e 18 109
e 18 110
e 18 116
e 18 126
e 19 21
e 19 22
e 19 24
e 19 28
e 19 32
e 19 34
e 19 48
e 19 57
e 19 58
e 19 65
e 19 67
e 19 69
e 19 75
e 19 82
e 19 83
e 19 85
e 19 86
e 19 89
e 19 90
e 19 96
e 19 97
e 19 98
e 19 99
e 19 102
e 19 103
e 19 109
e 19 110
e 19 111
e 19 114
e 19 115
e 19 116
e 19 117
e 19 120
e 19 122
e 19 123
e 19 126
e 20 25
e 20 26
e 20 28
e 20 29
e 20 38
e 20 46
e 20 47
e 20 50
e 20 53
e 20 54
e 20 55
e 20 61
e 20 63
e 20 66
e 20 68
e 20 69
e 20 71
e 20 73
e 20 78
e 20 79
e 20 80
e 20 85
e 20 87
e 20 89
e 20 91
e 20 92
e 20 93
e 20 95
e 20 97
e 20 98
e 20 99
e 20 100
e 20 101
e 20 104
e 20 106
e 20 108
e 20 110
e 20 113
e 20 116
e 20 117
e 20 119
e 20 120
e 20 122
e 21 23
e 21 25
e 21 29
e 21 30
e 21 34
e 21 35
e 21 37
e 21 38
e 21 40
e 21 42
e 21 46
e 21 50
e 21 56
e 21 60
e 21 61
e 21 65
e 21 66
e 21 68
e 21 69
e 21 72
e 21 74
e 21 87
e 21 102
e 21 104
e 21 107
e 21 112
e 21 115
e 21 117
e 21 121
e 21 123
e 22 23
e 22 31
e 22 33
e 22 34
e 22 35
e 22 37
e 22 41
e 22 42
e 22 43
e 22 44
e 22 46
e 22 48
e 22 49
e 22 52
e 22 56
e 22 57
e 22 61
e 22 62
e 22 64
e 22 66
e 22 74
e 22 83
e 22 85
e 22 89
e 22 91
e 22 95
e 22 98
e 22 103
e 22 106
e 22 108
e 22 112
e 22 120
e 22 123
e 22 125
e 23 28
e 23 33
e 23 34
e 23 37
e 23 44
e 23 45
e 23 47
e 23 50
e 23 52
e 23 55
e 23 58
e 23 63
e 23 67
e 23 69
e 23 71
e 23 74
e 23 75
e 23 76
e 23 77
e 23 78
e 23 80
e 23 82
e 23 86
e 23 87
e 23 93
e 23 102
e 23 103
e 23 104
e 23 105
e 23 107
e 23 110
e 23 111
e 23 113
e 23 116
e 23 117
e 23 119
e 23 122
e 23 124
e 23 126
e 24 27
e 24 28
e 24 29
e 24 34
e 24 37
e 24 38
e 24 43
e 24 44
e 24 46
e 24 48
e 24 49
e 24 50
e 24 53
e 24 56
e 24 57
e 24 58
e 24 65
e 24 67
e 24 69
e 24 74
e 24 83
e 24 91
e 24 98
e 24 101
e 24 105
e 24 108
e 24 109
e 24 111
e 24 114
e 24 117
e 24 118
e 24 119
e 24 122
e 24 125
e 24 127
e 25 26
e 25 29
e 25 30
e 25 35
e 25 36
e 25 37
e 25 38
e 25 40
e 25 48
e 25 52
e 25 54
e 25 57
e 25 64
e 25 66
e 25 72
e 25 74
e 25 76
e 25 77
e 25 80
e 25 81
e 25 87
e 25 90
e 25 91
e 25 92
e 25 95
e 25 100
e 25 104
e 25 120
e 25 122
e 25 123
e 25 124
e 25 125
e 26 28
e 26 37
e 26 38
e 26 39
e 26 44
e 26 45
e 26 46
e 26 53
e 26 56
e 26 58
e 26 64
e 26 65
e 26 71
e 26 86
e 26 89
e 26 90
e 26 99
e 26 101
e 26 102
e 26 103
e 26 107
e 26 113
e 26 117
e 26 118
e 26 119
e 26 121
e 27 29
e 27 30
e 27 31
e 27 32
e 27 33
e 27 34
e 27 35
e 27 36
e 27 37
e 27 38
e 27 41
e 27 42
e 27 45
e 27 46
e 27 48
e 27 53
e 27 57
e 27 59
e 27 65
e 27 69
e 27 72
e 27 73
e 27 78
e 27 79
e 27 80
e 27 81
e 27 83
e 27 84
e 27 89
e 27 90
e 27 93
e 27 98
e 27 110
e 27 111
e 27 115
e 27 116
e 27 117
e 27 118
e 27 119
e 27 120
e 27 121
e 27 122
e 27 127
e 28 29
e 28 31
e 28 32
e 28 33
e 28 41
e 28 45
e 28 46
e 28 47
e 28 48
e 28 49
e 28 50
e 28 52
e 28 58
e 28 61
e 28 62
e 28 65
e 28 66
e 28 67
e 28 68
e 28 73
e 28 74
e 28 75
e 28 78
e 28 80
e 28 92
e 28 94
e 28 97
e 28 99
e 28 101
e 28 102
e 28 104
e 28 106
e 28 108
e 28 110
e 28 111
e 28 112
e 28 115
e 28 118
e 28 121
e 28 122
e 28 123
e 28 124
e 28 125
e 28 126
e 29 30
e 29 35
e 29 37
e 29 47
e 29 48
e 29 49
e 29 54
e 29 55
e 29 63
e 29 65
e 29 78
e 29 79
e 29 80
e 29 81
e 29 86
e 29 89
e 29 91
e 29 95
e 29 98
e 29 109
e 29 110
e 29 112
e 29 113
e 29 114
e 29 119
e 29 124
e 29 125
e 29 126
e 30 33
e 30 35
e 30 36
e 30 46
e 30 52
e 30 54
e 30 57
e 30 60
e 30 63
e 30 64
e 30 69
e 30 71
e 30 72
e 30 75
e 30 77
e 30 78
e 30 83
e 30 87
e 30 91
e 30 93
e 30 94
e 30 97
e 30 101
e 30 104
e 30 105
e 30 107
e 30 108
e 30 111
e 30 119
e 30 121
e 30 124
e 30 125
e 30 126
e 31 33
e 31 34
e 31 36
e 31 38
e 31 41
e 31 47
e 31 48
e 31 50
e 31 52
e 31 54
e 31 58
e 31 61
e 31 63
e 31 66
e 31 70
e 31 74
e 31 76
e 31 79
e 31 82
e 31 83
e 31 84
e 31 85
e 31 88
e 31 92
e 31 96
e 31 97
e 31 98
e 31 100
e 31 102
e 31 107
e 31 112
e 31 117
e 31 119
e 31 122
e 31 123
e 31 125
e 31 126
e 32 33
e 32 36
e 32 38
e 32 42
e 32 44
e 32 46
e 32 48
e 32 49
e 32 51
e 32 56
e 32 57
e 32 58
e 32 63
e 32 66
e 32 69
e 32 70
e 32 73
e 32 74
e 32 77
e 32 86
e 32 88
e 32 89
e 32 90
e 32 91
e 32 94
e 32 98
e 32 99
e 32 100
e 32 101
e 32 102
e 32 110
e 32 115
e 32 120
e 32 121
e 32 123
e 32 124
e 32 125
e 33 36
e 33 40
e 33 42
e 33 45
e 33 47
e 33 48
e 33 54
e 33 63
e 33 65
e 33 70
e 33 73
e 33 79
e 33 80
e 33 81
e 33 84
e 33 86
e 33 91
e 33 92
e 33 99
e 33 101
e 33 102
e 33 106
e 33 108
e 33 111
e 33 112
e 33 116
e 33 121
e 33 122
e 33 123
e 34 35
e 34 38
e 34 39
e 34 44
e 34 45
e 34 46
e 34 49
e 34 50
e 34 54
e 34 55
e 34 61
e 34 62
e 34 66
e 34 69
e 34 70
e 34 77
e 34 79
e 34 85
e 34 87
e 34 90
e 34 92
e 34 96
e 34 99
e 34 101
e 34 103
e 34 108
e 34 109
e 34 113
e 34 114
e 34 118
e 35 37
e 35 41
e 35 43
e 35 45
e 35 54
e 35 56
e 35 58
e 35 59
e 35 60
e 35 67
e 35 69
e 35 71
e 35 75
e 35 77
e 35 85
e 35 86
e 35 88
e 35 94
e 35 95
e 35 98
e 35 103
e 35 107
e 35 108
e 35 111
e 35 118
e 35 123
e 35 124
e 35 125
e 36 39
e 36 41
e 36 44
e 36 45
e 36 48
e 36 49
e 36 52
e 36 56
e 36 57
e 36 62
e 36 67
e 36 68
e 36 72
e 36 74
e 36 77
e 36 79
e 36 83
e 36 84
e 36 85
e 36 88
e 36 90
e 36 93
e 36 97
e 36 103
e 36 109
e 36 112
e 36 116
e 36 117
e 36 120
e 36 121
e 36 122
e 36 123
e 37 39
e 37 41
e 37 42
e 37 43
e 37 46
e 37 48
e 37 50
e 37 55
e 37 56
e 37 58
e 37 61
e 37 62
e 37 68
e 37 69
e 37 72
e 37 76
e 37 77
e 37 78
e 37 80
e 37 82
e 37 88
e 37 90
e 37 92
e 37 96
e 37 101
e 37 104
e 37 106
e 37 107
e 37 111
e 37 113
e 37 117
e 37 123
e 38 41
e 38 42
e 38 43
e 38 50
e 38 52
e 38 55
e 38 58
e 38 59
e 38 66
e 38 68
e 38 70
e 38 73
e 38 75
e 38 78
e 38 80
e 38 83
e 38 88
e 38 91
e 38 92
e 38 105
e 38 108
e 38 113
e 38 114
e 38 118
e 38 124
e 38 126
e 39 41
e 39 49
e 39 51
e 39 54
e 39 56
e 39 59
e 39 61
e 39 62
e 39 64
e 39 67
e 39 69
e 39 71
e 39 72
e 39 76
e 39 88
e 39 90
e 39 96
e 39 98
e 39 99
e 39 101
e 39 104
e 39 107
e 39 108
e 39 112
e 39 113
e 39 120
e 39 123
e 39 124
e 39 125
e 40 43
e 40 45
e 40 49
e 40 50
e 40 58
e 40 60
e 40 63
e 40 67
e 40 70
e 40 71
e 40 78
e 40 82
e 40 83
e 40 84
e 40 89
e 40 91
e 40 92
e 40 94
e 40 97
e 40 98
e 40 102
e 40 107
e 40 114
e 40 118
e 40 119
e 40 121
e 40 123
e 40 125
e 41 45
e 41 49
e 41 51
e 41 54
e 41 57
e 41 59
e 41 61
e 41 64
e 41 65
e 41 69
e 41 73
e 41 77
e 41 82
e 41 87
e 41 89
e 41 91
e 41 96
e 41 97
e 41 99
e 41 108
e 41 109
e 41 119
e 41 121
e 41 122
e 41 123
e 41 124
e 42 44
e 42 48
e 42 51
e 42 56
e 42 57
e 42 61
e 42 64
e 42 70
e 42 72
e 42 78
e 42 79
e 42 80
e 42 82
e 42 83
e 42 84
e 42 88
e 42 89
e 42 90
e 42 91
e 42 94
e 42 98
e 42 101
e 42 102
e 42 104
e 42 105
e 42 109
e 42 112
e 42 119
e 42 120
e 42 121
e 43 44
e 43 48
e 43 49
e 43 52
e 43 54
e 43 59
e 43 63
e 43 64
e 43 71
e 43 75
e 43 79
e 43 81
e 43 85
e 43 86
e 43 88
e 43 93
e 43 98
e 43 101
e 43 107
e 43 111
e 43 115
e 43 119
e 43 122
e 43 125
e 43 126
e 44 45
e 44 46
e 44 48
e 44 49
e 44 53
e 44 55
e 44 57
e 44 58
e 44 59
e 44 64
e 44 65
e 44 67
e 44 68
e 44 71
e 44 72
e 44 73
e 44 75
e 44 76
e 44 77
e 44 81
e 44 83
e 44 87
e 44 88
e 44 90
e 44 96
e 44 110
e 44 113
e 44 115
e 44 116
e 44 117
e 44 120
e 44 126
e 45 50
e 45 51
e 45 54
e 45 56
e 45 62
e 45 63
e 45 66
e 45 70
e 45 71
e 45 73
e 45 77
e 45 79
e 45 84
e 45 86
e 45 91
e 45 94
e 45 95
e 45 100
e 45 103
e 45 104
e 45 106
e 45 112
e 45 116
e 45 119
e 45 122
e 45 127
e 46 47
e 46 48
e 46 49
e 46 51
e 46 52
e 46 55
e 46 60
e 46 62
e 46 63
e 46 65
e 46 67
e 46 69
e 46 74
e 46 78
e 46 82
e 46 84
e 46 88
e 46 91
e 46 94
e 46 97
e 46 99
e 46 100
e 46 102
e 46 103
e 46 107
e 46 113
e 46 119
e 46 124
e 47 55
e 47 58
e 47 61
e 47 62
e 47 63
e 47 64
e 47 67
e 47 68
e 47 71
e 47 76
e 47 78
e 47 79
e 47 80
e 47 83
e 47 88
e 47 89
e 47 91
e 47 92
e 47 94
e 47 98
e 47 99
e 47 100
e 47 102
e 47 104
e 47 106
e 47 107
e 47 108
e 47 113
e 47 114
e 47 115
e 47 116
e 47 118
e 47 119
e 47 124
e 48 52
e 48 56
e 48 57
e 48 63
e 48 67
e 48 68
e 48 70
e 48 73
e 48 78
e 48 80
e 48 86
e 48 91
e 48 93
e 48 94
e 48 96
e 48 100
e 48 104
e 48 106
e 48 107
e 48 108
e 48 113
e 48 116
e 48 122
e 48 123
e 48 124
e 48 125
e 49 52
e 49 53
e 49 54
e 49 58
e 49 63
e 49 64
e 49 67
e 49 73
e 49 75
e 49 78
e 49 79
e 49 82
e 49 83
e 49 86
e 49 92
e 49 94
e 49 95
e 49 99
e 49 100
e 49 101
e 49 104
e 49 107
e 49 109
e 49 110
e 49 113
e 49 114
e 49 116
e 49 117
e 49 118
e 49 119
e 49 121
e 49 123
e 50 54
e 50 57
e 50 58
e 50 65
e 50 68
e 50 70
e 50 71
e 50 73
e 50 77
e 50 81
e 50 82
e 50 85
e 50 87
e 50 92
e 50 93
e 50 102
e 50 103
e 50 112
e 50 114
e 50 115
e 50 119
e 50 120
e 50 121
e 50 126
e 51 56
e 51 58
e 51 59
e 51 60
e 51 61
e 51 65
e 51 69
e 51 70
e 51 71
e 51 73
e 51 74
e 51 75
e 51 80
e 51 81
e 51 82
e 51 86
e 51 89
e 51 92
e 51 93
e 51 98
e 51 99
e 51 101
e 51 104
e 51 105
e 51 107
e 51 108
e 51 109
e 51 110
e 51 113
e 51 115
e 51 116
e 51 121
e 51 122
e 51 126
e 52 55
e 52 59
e 52 65
e 52 69
e 52 72
e 52 73
e 52 75
e 52 77
e 52 82
e 52 83
e 52 91
e 52 93
e 52 98
e 52 101
e 52 103
e 52 109
e 52 110
e 52 117
e 52 118
e 52 123
e 52 125
e 52 126
e 53 54
e 53 59
e 53 60
e 53 72
e 53 73
e 53 76
e 53 78
e 53 79
e 53 80
e 53 85
e 53 99
e 53 100
e 53 104
e 53 107
e 53 109
e 53 111
e 53 114
e 53 116
e 53 119
e 53 121
e 53 123
e 53 126
e 54 60
e 54 61
e 54 62
e 54 63
e 54 65
e 54 66
e 54 67
e 54 68
e 54 74
e 54 77
e 54 78
e 54 81
e 54 84
e 54 90
e 54 92
e 54 93
e 54 96
e 54 98
e 54 99
e 54 103
e 54 106
e 54 109
e 54 112
e 54 113
e 54 116
e 54 120
e 54 121
e 54 123
e 55 57
e 55 66
e 55 68
e 55 70
e 55 77
e 55 78
e 55 82
e 55 86
e 55 91
e 55 94
e 55 95
e 55 98
e 55 103
e 55 108
e 55 110
e 55 112
e 55 117
e 55 124
e 55 125
e 55 126
e 56 58
e 56 62
e 56 63
e 56 71
e 56 74
e 56 75
e 56 76
e 56 77
e 56 78
e 56 81
e 56 83
e 56 85
e 56 90
e 56 91
e 56 96
e 56 98
e 56 99
e 56 103
e 56 105
e 56 111
e 56 116
e 56 117
e 56 120
e 56 121
e 56 123
e 56 124
e 57 58
e 57 59
e 57 60
e 57 61
e 57 64
e 57 75
e 57 76
e 57 77
e 57 79
e 57 80
e 57 81
e 57 84
e 57 85
e 57 87
e 57 88
e 57 95
e 57 96
e 57 99
e 57 100
e 57 101
e 57 102
e 57 104
e 57 109
e 57 110
e 57 112
e 57 113
e 57 116
e 57 118
e 57 119
e 57 122
e 57 123
e 57 126
e 58 63
e 58 64
e 58 73
e 58 75
e 58 78
e 58 79
e 58 83
e 58 86
e 58 93
e 58 95
e 58 97
e 58 103
e 58 104
e 58 105
e 58 107
e 58 111
e 58 119
e 58 120
e 58 121
e 58 122
e 58 124
e 58 126
e 59 60
e 59 61
e 59 63
e 59 64
e 59 67
e 59 68
e 59 71
e 59 75
e 59 79
e 59 81
e 59 84
e 59 89
e 59 91
e 59 92
e 59 96
e 59 102
e 59 103
e 59 104
e 59 119
e 59 120
e 59 122
e 59 125
e 59 126
e 60 66
e 60 67
e 60 68
e 60 76
e 60 77
e 60 78
e 60 81
e 60 82
e 60 83
e 60 84
e 60 88
e 60 92
e 60 93
e 60 94
e 60 96
e 60 97
e 60 99
e 60 100
e 60 101
e 60 102
e 60 104
e 60 106
e 60 107
e 60 110
e 60 116
e 60 118
e 60 120
e 60 122
e 60 125
e 60 126
e 61 62
e 61 63
e 61 66
e 61 68
e 61 69
e 61 72
e 61 74
e 61 76
e 61 77
e 61 78
e 61 79
e 61 80
e 61 82
e 61 86
e 61 91
e 61 95
e 61 97
e 61 105
e 61 107
e 61 111
e 61 116
e 61 122
e 61 123
e 61 125
e 62 63
e 62 64
e 62 65
e 62 67
e 62 70
e 62 74
e 62 78
e 62 79
e 62 80
e 62 81
e 62 83
e 62 85
e 62 86
e 62 87
e 62 88
e 62 91
e 62 92
e 62 100
e 62 114
e 62 118
e 62 119
e 62 122
e 62 126
e 63 64
e 63 66
e 63 75
e 63 77
e 63 83
e 63 85
e 63 88
e 63 93
e 63 96
e 63 99
e 63 100
e 63 102
e 63 107
e 63 108
e 63 111
e 63 113
e 63 114
e 63 117
e 63 120
e 63 123
e 63 124
e 63 125
e 63 126
e 63 127
e 64 68
e 64 73
e 64 83
e 64 86
e 64 87
e 64 90
e 64 92
e 64 93
e 64 97
e 64 101
e 64 102
e 64 103
e 64 104
e 64 106
e 64 109
e 64 112
e 64 113
e 64 115
e 64 124
e 65 66
e 65 77
e 65 80
e 65 81
e 65 82
e 65 84
e 65 87
e 65 88
e 65 91
e 65 92
e 65 94
e 65 95
e 65 97
e 65 100
e 65 101
e 65 103
e 65 105
e 65 111
e 65 113
e 65 116
e 65 121
e 65 123
e 65 127
e 66 67
e 66 68
e 66 69
e 66 72
e 66 73
e 66 75
e 66 76
e 66 80
e 66 83
e 66 86
e 66 87
e 66 91
e 66 94
e 66 95
e 66 96
e 66 102
e 66 103
e 66 108
e 66 118
e 66 119
e 66 121
e 66 123
e 66 124
e 66 126
e 66 127
e 67 68
e 67 69
e 67 70
e 67 71
e 67 74
e 67 81
e 67 87
e 67 90
e 67 93
e 67 95
e 67 97
e 67 100
e 67 102
e 67 104
e 67 107
e 67 110
e 67 114
e 67 117
e 67 118
e 67 122
e 68 69
e 68 74
e 68 78
e 68 82
e 68 83
e 68 84
e 68 86
e 68 93
e 68 94
e 68 96
e 68 97
e 68 98
e 68 99
e 68 102
e 68 107
e 68 108
e 68 109
e 68 111
e 68 114
e 68 124
e 68 125
e 69 72
e 69 73
e 69 78
e 69 79
e 69 80
e 69 81
e 69 82
e 69 85
e 69 87
e 69 89
e 69 98
e 69 102
e 69 108
e 69 110
e 69 119
e 69 124
e 69 125
e 70 76
e 70 81
e 70 83
e 70 84
e 70 94
e 70 95
e 70 101
e 70 102
e 70 106
e 70 108
e 70 111
e 70 115
e 70 116
e 70 117
e 70 121
e 70 126
e 71 72
e 71 74
e 71 75
e 71 77
e 71 79
e 71 80
e 71 81
e 71 82
e 71 87
e 71 88
e 71 89
e 71 91
e 71 100
e 71 114
e 71 115
e 71 119
e 71 124
e 72 76
e 72 78
e 72 82
e 72 83
e 72 85
e 72 88
e 72 93
e 72 97
e 72 98
e 72 102
e 72 104
e 72 106
e 72 107
e 72 108
e 72 110
e 72 114
e 72 115
e 72 122
e 72 127
e 73 75
e 73 78
e 73 79
e 73 80
e 73 83
e 73 84
e 73 85
e 73 86
e 73 90
e 73 93
e 73 94
e 73 95
e 73 99
e 73 102
e 73 103
e 73 106
e 73 109
e 73 116
e 73 117
e 73 119
e 73 120
e 73 122
e 73 125
e 73 127
e 74 75
e 74 79
e 74 81
e 74 83
e 74 84
e 74 87
e 74 89
e 74 94
e 74 107
e 74 110
e 74 111
e 74 112
e 74 113
e 74 116
e 74 118
e 74 120
e 74 121
e 75 78
e 75 83
e 75 84
e 75 86
e 75 93
e 75 96
e 75 99
e 75 102
e 75 104
e 75 105
e 75 106
e 75 108
e 75 117
e 75 121
e 75 122
e 75 126
e 76 78
e 76 80
e 76 81
e 76 83
e 76 85
e 76 88
e 76 89
e 76 92
e 76 101
e 76 102
e 76 103
e 76 106
e 76 111
e 76 112
e 76 114
e 76 116
e 76 118
e 76 126
e 76 127
e 77 79
e 77 80
e 77 83
e 77 89
e 77 90
e 77 92
e 77 93
e 77 94
e 77 96
e 77 98
e 77 99
e 77 104
e 77 105
e 77 109
e 77 110
e 77 111
e 77 112
e 77 114
e 77 115
e 77 116
e 77 117
e 77 119
e 77 122
e 77 125
e 78 81
e 78 82
e 78 83
e 78 90
e 78 94
e 78 99
e 78 101
e 78 105
e 78 110
e 78 114
e 78 126
e 79 82
e 79 85
e 79 88
e 79 89
e 79 96
e 79 98
e 79 100
e 79 101
e 79 102
e 79 109
e 79 119
e 79 120
e 79 125
e 80 86
e 80 88
e 80 90
e 80 93
e 80 94
e 80 95
e 80 100
e 80 108
e 80 110
e 80 111
e 80 115
e 80 118
e 80 121
e 80 124
e 80 125
e 81 84
e 81 86
e 81 89
e 81 91
e 81 95
e 81 96
e 81 99
e 81 100
e 81 103
e 81 105
e 81 106
e 81 107
e 81 112
e 81 115
e 81 119
e 81 121
e 81 123
e 81 125
e 82 85
e 82 94
e 82 96
e 82 101
e 82 104
e 82 105
e 82 106
e 82 108
e 82 109
e 82 110
e 82 112
e 82 118
e 82 119
e 82 121
e 82 123
e 82 124
e 82 125
e 82 127
e 83 84
e 83 87
e 83 90
e 83 91
e 83 96
e 83 98
e 83 102
e 83 106
e 83 110
e 83 113
e 83 115
e 83 119
e 83 124
e 83 125
e 84 88
e 84 89
e 84 94
e 84 95
e 84 98
e 84 100
e 84 104
e 84 108
e 84 112
e 84 115
e 84 122
e 84 126
e 85 88
e 85 89
e 85 95
e 85 97
e 85 98
e 85 100
e 85 104
e 85 109
e 85 111
e 85 114
e 85 120
e 85 122
e 85 125
e 85 127
e 86 90
e 86 103
e 86 105
e 86 106
e 86 108
e 86 113
e 86 121
e 86 124
e 86 126
e 87 89
e 87 93
e 87 95
e 87 96
e 87 97
e 87 101
e 87 115
e 87 117
e 87 122
e 87 123
e 88 89
e 88 91
e 88 93
e 88 104
e 88 105
e 88 106
e 88 112
e 88 113
e 88 114
e 88 115
e 88 120
e 88 121
e 88 123
e 88 125
e 89 91
e 89 96
e 89 97
e 89 110
e 89 113
e 89 114
e 89 116
e 89 126
e 90 98
e 90 101
e 90 103
e 90 105
e 90 106
e 90 110
e 90 111
e 90 115
e 90 118
e 90 121
e 90 124
e 90 126
e 91 93
e 91 96
e 91 97
e 91 99
e 91 102
e 91 107
e 91 108
e 91 109
e 91 112
e 91 113
e 91 118
e 91 119
e 91 120
e 91 126
e 92 94
e 92 96
e 92 97
e 92 98
e 92 101
e 92 102
e 92 111
e 92 115
e 92 116
e 92 119
e 92 120
e 92 124
e 92 125
e 92 126
e 93 94
e 93 95
e 93 96
e 93 99
e 93 102
e 93 106
e 93 115
e 93 117
e 93 118
e 93 121
e 93 124
e 94 98
e 94 101
e 94 105
e 94 106
e 94 109
e 94 113
e 94 121
e 94 124
e 94 125
e 95 97
e 95 99
e 95 100
e 95 105
e 95 106
e 95 107
e 95 109
e 95 114
e 95 115
e 95 117
e 95 121
e 95 124
e 95 126
e 96 97
e 96 101
e 96 104
e 96 106
e 96 110
e 96 111
e 96 112
e 96 113
e 96 115
e 96 116
e 96 121
e 96 123
e 97 99
e 97 100
e 97 101
e 97 102
e 97 104
e 97 111
e 97 113
e 97 117
e 97 126
e 98 101
e 98 102
e 98 105
e 98 107
e 98 109
e 98 110
e 98 113
e 98 114
e 98 115
e 98 121
e 99 100
e 99 102
e 99 107
e 99 111
e 99 112
e 99 114
e 99 116
e 99 122
e 99 123
e 99 124
e 99 125
e 100 106
e 100 109
e 100 112
e 100 113
e 100 117
e 100 118
e 100 120
e 100 124
e 100 126
e 101 102
e 101 103
e 101 104
e 101 111
e 101 112
e 101 115
e 101 116
e 101 126
e 102 103
e 102 105
e 102 109
e 102 114
e 102 117
e 102 123
e 102 127
e 103 106
e 103 113
e 103 114
e 103 117
e 103 120
e 103 121
e 103 123
e 104 105
e 104 107
e 104 109
e 104 115
e 104 116
e 104 121
e 104 122
e 104 123
e 104 125
e 105 106
e 105 113
e 105 119
e 105 122
e 105 124
e 106 108
e 106 113
e 106 114
e 106 115
e 106 117
e 106 118
e 106 121
e 106 127
e 107 113
e 107 117
e 107 120
e 107 121
e 107 123
e 107 124
e 107 126
e 108 111
e 108 113
e 108 117
e 109 110
e 109 111
e 109 114
e 109 117
e 109 119
e 109 121
e 109 122
e 109 123
e 110 111
e 110 116
e 110 117
e 110 119
e 110 121
e 110 124
e 111 113
e 111 117
e 111 119
e 111 120
e 111 121
e 111 124
e 111 125
e 111 126
e 111 127
e 112 113
e 112 119
e 112 120
e 112 123
e 112 124
e 112 125
e 113 114
e 113 115
e 113 116
e 113 118
e 113 120
e 113 127
e 114 115
e 114 117
e 114 119
e 114 123
e 114 124
e 115 117
e 115 118
e 115 125
e 115 127
e 116 118
e 116 121
e 116 123
e 116 125
e 116 126
e 117 125
e 118 120
e 118 121
e 119 121
e 119 125
e 119 126
e 122 124
e 123 127
e 124 127
